unknown
(model
; cardinality of BoundSet is 3
(declare-sort BoundSet 0)
; rep: @uc_BoundSet_0
; rep: @uc_BoundSet_1
; rep: @uc_BoundSet_2
; cardinality of UnboundSet is 1
(declare-sort UnboundSet 0)
(declare-fun groundTerm_4 () UnboundSet)
(define-fun IsRed ((BOUND_VARIABLE_446 BoundSet)) Bool true)
(define-fun Jumps ((BOUND_VARIABLE_446 BoundSet)) Bool true)
(define-fun IsCaughtInMouth ((BOUND_VARIABLE_446 BoundSet)) Bool true)
(define-fun IsBall ((BOUND_VARIABLE_446 BoundSet)) Bool false)
(define-fun IsCaught ((BOUND_VARIABLE_446 BoundSet)) Bool false)
)
sat
(model
; cardinality of BoundSet is 1
(declare-sort BoundSet 0)
; rep: @uc_BoundSet_0
; cardinality of UnboundSet is 1
(declare-sort UnboundSet 0)
(declare-fun groundTerm_7 () UnboundSet)
(define-fun IsRed ((BOUND_VARIABLE_490 BoundSet)) Bool true)
(define-fun Jumps ((BOUND_VARIABLE_490 BoundSet)) Bool true)
(define-fun IsCaughtInMouth ((BOUND_VARIABLE_490 BoundSet)) Bool true)
(define-fun IsBall ((BOUND_VARIABLE_490 BoundSet)) Bool true)
(define-fun IsCaught ((BOUND_VARIABLE_490 BoundSet)) Bool false)
)
